data;


param d:= 100;
param r:=5;
param p:=0.800000;
param M:=1000;
param U:=
         1         1       -1.023437e+00
         2         1       -1.579716e+00
         3         1       -1.621717e-01
         4         1       -9.696341e-01
         5         1       -1.423101e+00
         6         1       -5.031452e-01
         7         1        1.850664e-01
         8         1        2.880872e-02
         9         1        1.761221e+00
        10         1        5.023134e-01
        11         1        1.911053e+00
        12         1        1.199405e+00
        13         1       -1.059925e+00
        14         1       -3.159520e-01
        15         1       -7.531482e-01
        16         1       -7.129457e-01
        17         1        6.396373e-01
        18         1        3.586832e-01
        19         1        2.072579e-01
        20         1       -8.264391e-01
        21         1        7.124414e-01
        22         1        1.459073e-01
        23         1        5.896851e-01
        24         1       -7.261311e-01
        25         1       -9.562475e-01
        26         1       -1.309040e+00
        27         1       -8.378096e-01
        28         1        1.046587e+00
        29         1        1.121962e+00
        30         1       -1.415996e-01
        31         1        1.739020e+00
        32         1        5.950480e-01
        33         1        4.617928e-01
        34         1       -2.614541e-01
        35         1        1.433048e-01
        36         1       -8.239246e-01
        37         1        1.351153e-01
        38         1        1.667750e+00
        39         1       -1.390548e+00
        40         1        8.434519e-02
        41         1       -1.151544e+00
        42         1       -1.031548e+00
        43         1       -9.824987e-01
        44         1        6.963973e-01
        45         1        6.745518e-01
        46         1        1.179173e+00
        47         1        3.372871e-01
        48         1       -2.599198e-01
        49         1       -7.372125e-01
        50         1        1.122570e-02
        51         1       -3.238027e-01
        52         1        1.907879e-01
        53         1       -1.152339e+00
        54         1       -3.307351e+00
        55         1       -2.162380e+00
        56         1       -1.669073e+00
        57         1        6.502561e-01
        58         1        1.442671e+00
        59         1        2.357029e+00
        60         1       -7.365960e-01
        61         1       -7.276801e-02
        62         1        1.612515e+00
        63         1       -8.658497e-01
        64         1       -1.391706e-01
        65         1        3.900442e+00
        66         1       -1.390903e+00
        67         1       -3.575863e-02
        68         1        8.278564e-01
        69         1        9.191485e-01
        70         1       -1.212229e+00
        71         1        2.010376e-01
        72         1        9.468801e-01
        73         1       -1.810094e+00
        74         1       -5.506592e-01
        75         1        1.019668e+00
        76         1        6.284122e-01
        77         1       -1.202828e+00
        78         1       -8.124858e-01
        79         1       -2.039357e-01
        80         1        7.626655e-01
        81         1        1.662031e-01
        82         1       -1.813683e+00
        83         1        2.502213e+00
        84         1        8.367482e-01
        85         1        1.626846e-01
        86         1        4.013283e-01
        87         1        2.671774e+00
        88         1        6.686639e-01
        89         1       -5.110607e-01
        90         1        1.134762e+00
        91         1       -7.187200e-01
        92         1       -7.975802e-01
        93         1        9.778918e-01
        94         1        2.040989e-01
        95         1       -3.945431e-01
        96         1        1.056112e+00
        97         1        1.202652e+00
        98         1       -5.974762e-01
        99         1        1.158002e+00
       100         1        1.065352e+00
         1         2       -1.023927e+00
         2         2        8.360379e-01
         3         2        3.632406e-02
         4         2       -1.997865e+00
         5         2        1.549751e+00
         6         2       -1.111296e+00
         7         2        3.359306e-01
         8         2       -5.658026e-01
         9         2        1.248132e+00
        10         2       -2.211733e-01
        11         2        7.499245e-01
        12         2        1.035239e+00
        13         2        5.473852e-01
        14         2       -1.214496e-01
        15         2       -6.252672e-01
        16         2       -4.910192e-02
        17         2       -4.909093e-01
        18         2        1.609847e+00
        19         2        1.368964e-01
        20         2       -1.928589e-01
        21         2       -2.253027e-01
        22         2        1.601026e+00
        23         2       -8.512237e-01
        24         2        8.998562e-01
        25         2        1.067211e-01
        26         2       -1.603674e+00
        27         2        1.019916e+00
        28         2       -1.670918e-01
        29         2        1.132731e-01
        30         2        1.340571e-01
        31         2        1.188844e+00
        32         2       -1.035966e+00
        33         2        1.959930e-01
        34         2       -4.953207e-01
        35         2       -2.170426e-01
        36         2       -7.564137e-01
        37         2       -3.478169e-01
        38         2        5.298250e-03
        39         2        1.543215e+00
        40         2       -8.766586e-03
        41         2        1.057401e+00
        42         2        8.830963e-01
        43         2        1.950378e+00
        44         2        1.043356e+00
        45         2        9.415870e-01
        46         2        3.117735e-01
        47         2       -1.205019e+00
        48         2       -1.561473e+00
        49         2       -3.998243e-01
        50         2        4.536984e-01
        51         2        6.956887e-01
        52         2       -1.463241e+00
        53         2        5.879432e-01
        54         2        6.218010e-01
        55         2        9.675353e-01
        56         2       -5.940725e-01
        57         2        2.485837e-01
        58         2        2.679985e+00
        59         2       -1.721411e+00
        60         2       -1.215421e+00
        61         2        2.177324e-01
        62         2        1.160660e+00
        63         2        6.412060e-01
        64         2       -6.955877e-01
        65         2       -5.474978e-01
        66         2        8.732640e-01
        67         2       -3.616370e-01
        68         2       -6.958806e-01
        69         2        1.227399e+00
        70         2       -1.153336e+00
        71         2       -1.015288e+00
        72         2        2.035799e+00
        73         2        3.366474e-01
        74         2       -3.606942e-01
        75         2        8.835316e-01
        76         2        9.009945e-01
        77         2       -1.735554e+00
        78         2        2.575561e+00
        79         2        1.057329e+00
        80         2        6.093132e-01
        81         2       -1.138904e+00
        82         2       -2.987386e-01
        83         2        2.162783e+00
        84         2       -3.895691e-01
        85         2       -1.604247e+00
        86         2        8.713327e-01
        87         2        1.315139e+00
        88         2        4.657200e-01
        89         2       -8.898843e-01
        90         2       -1.458777e-01
        91         2       -1.109462e+00
        92         2       -1.447494e+00
        93         2        7.162279e-01
        94         2        4.784980e-02
        95         2       -2.543436e+00
        96         2       -3.281880e-01
        97         2       -5.503652e-01
        98         2       -1.113856e+00
        99         2        6.613967e-02
       100         2       -1.190630e+00
         1         3        1.656266e+00
         2         3       -1.104190e+00
         3         3        6.798303e-02
         4         3        7.144919e-01
         5         3       -4.017386e-01
         6         3        1.823003e+00
         7         3       -4.650823e-01
         8         3        9.811389e-01
         9         3       -5.632538e-01
        10         3       -1.938152e+00
        11         3       -1.448805e+00
        12         3        1.379506e+00
        13         3       -3.103023e-01
        14         3       -1.146412e+00
        15         3       -7.524940e-01
        16         3        1.072078e+00
        17         3       -1.425520e+00
        18         3        2.328593e+00
        19         3       -1.136565e+00
        20         3       -5.760717e-01
        21         3       -9.385031e-01
        22         3        9.511508e-01
        23         3        6.447389e-01
        24         3       -7.364173e-01
        25         3       -1.441348e+00
        26         3       -2.439292e-02
        27         3       -5.711699e-01
        28         3        1.949155e+00
        29         3       -2.156033e-02
        30         3        2.986259e-01
        31         3       -3.699325e-01
        32         3        6.041438e-02
        33         3        5.878171e-01
        34         3        7.574250e-01
        35         3       -1.124204e+00
        36         3        1.683652e+00
        37         3        7.054400e-01
        38         3       -1.075442e+00
        39         3       -8.577887e-03
        40         3        1.110244e-02
        41         3        3.074852e-01
        42         3       -8.249847e-01
        43         3        1.363933e+00
        44         3        2.386453e-01
        45         3       -1.752010e-02
        46         3       -5.305696e-01
        47         3        5.400003e-01
        48         3       -8.916537e-01
        49         3       -6.247589e-01
        50         3       -1.611337e+00
        51         3       -4.514953e-01
        52         3        2.126199e-01
        53         3        2.129158e-01
        54         3       -2.151718e-01
        55         3        1.553996e+00
        56         3        1.058042e+00
        57         3        1.179694e+00
        58         3        2.059049e-01
        59         3       -1.064572e+00
        60         3        2.088810e-01
        61         3       -6.969509e-01
        62         3       -4.078430e-01
        63         3        1.000833e+00
        64         3        2.335433e+00
        65         3       -4.593512e-01
        66         3        1.430132e+00
        67         3       -9.170350e-01
        68         3        8.524863e-01
        69         3        4.305379e-02
        70         3        1.328652e+00
        71         3       -2.895902e-02
        72         3        2.095868e-01
        73         3       -9.070022e-01
        74         3       -1.296301e-01
        75         3        1.791614e+00
        76         3        2.977023e+00
        77         3       -3.526512e-01
        78         3        4.004966e-01
        79         3       -4.724066e-01
        80         3        3.789068e-01
        81         3        1.043556e-01
        82         3       -2.100586e+00
        83         3       -1.311821e-01
        84         3        7.296484e-01
        85         3        3.243259e-01
        86         3       -2.076406e+00
        87         3       -4.970768e-01
        88         3       -2.739337e+00
        89         3        1.032602e+00
        90         3       -6.431140e-01
        91         3       -1.882038e-01
        92         3        4.878556e-01
        93         3       -6.308606e-01
        94         3        3.390242e-01
        95         3        2.208806e-01
        96         3       -1.099868e+00
        97         3        2.769914e-01
        98         3        1.022926e+00
        99         3       -7.281639e-01
       100         3       -1.516457e+00
         1         4       -8.918961e-02
         2         4        9.910760e-01
         3         4       -7.705925e-01
         4         4        7.191573e-01
         5         4       -1.163389e+00
         6         4        3.632613e-01
         7         4       -7.908394e-02
         8         4       -9.720906e-01
         9         4        2.118633e-01
        10         4       -2.095208e+00
        11         4        1.734384e+00
        12         4       -6.505477e-01
        13         4       -2.344426e+00
        14         4        9.961325e-01
        15         4        3.137100e-01
        16         4        3.839214e-01
        17         4        1.279654e+00
        18         4       -8.585917e-01
        19         4        2.034571e+00
        20         4        1.209769e+00
        21         4        1.969641e+00
        22         4        8.889027e-01
        23         4       -9.468808e-01
        24         4        1.017730e+00
        25         4       -1.923277e+00
        26         4       -8.296732e-02
        27         4        1.075250e-01
        28         4        7.855126e-02
        29         4       -6.275219e-01
        30         4       -1.071152e+00
        31         4       -5.746494e-01
        32         4        8.001715e-02
        33         4       -9.311177e-02
        34         4       -9.774001e-01
        35         4        1.941604e+00
        36         4        4.364443e-01
        37         4        7.520607e-01
        38         4       -1.388038e+00
        39         4       -2.360576e-01
        40         4        2.402732e-01
        41         4        8.845723e-01
        42         4       -8.782001e-01
        43         4       -7.979743e-02
        44         4       -1.873226e-02
        45         4        2.555620e-01
        46         4        1.917720e+00
        47         4       -1.578219e+00
        48         4        1.014845e+00
        49         4        6.109515e-01
        50         4        5.747451e-01
        51         4       -1.210480e-01
        52         4        4.423027e-01
        53         4       -5.132828e-01
        54         4        1.570189e+00
        55         4        7.889521e-02
        56         4        2.348429e+00
        57         4       -1.481816e-01
        58         4       -1.162194e+00
        59         4       -5.321593e-01
        60         4       -5.853589e-01
        61         4        5.486349e-01
        62         4       -8.624147e-01
        63         4       -2.420871e+00
        64         4        7.276946e-01
        65         4       -1.797551e-01
        66         4       -5.474156e-01
        67         4        7.501477e-01
        68         4       -1.743205e-01
        69         4        1.899041e+00
        70         4       -3.101766e-01
        71         4       -5.507995e-01
        72         4        4.926666e-01
        73         4        1.505714e+00
        74         4       -1.586505e+00
        75         4        1.062015e+00
        76         4        4.916972e-01
        77         4        1.028393e-01
        78         4       -1.885771e+00
        79         4       -2.348483e+00
        80         4        6.437472e-01
        81         4        4.241034e-01
        82         4        1.788647e-01
        83         4       -2.277172e-01
        84         4       -3.062054e-01
        85         4        8.739268e-01
        86         4       -5.368374e-01
        87         4       -3.978177e-01
        88         4       -1.280244e+00
        89         4       -7.036318e-01
        90         4       -8.413828e-01
        91         4       -7.902089e-02
        92         4        6.351711e-01
        93         4        8.395139e-01
        94         4        4.403873e-01
        95         4        5.903419e-01
        96         4        7.262000e-01
        97         4        1.493320e-01
        98         4       -1.130311e+00
        99         4        8.503319e-01
       100         4       -2.762240e-01
         1         5        1.949670e-01
         2         5       -2.493249e+00
         3         5        8.188778e-01
         4         5        1.158913e+00
         5         5       -9.413876e-01
         6         5       -4.392009e-01
         7         5        4.882484e-01
         8         5       -1.351757e+00
         9         5       -3.961687e-01
        10         5        5.696200e-04
        11         5        3.098370e-01
        12         5        4.372688e-01
        13         5        1.590426e+00
        14         5       -7.515475e-01
        15         5       -5.071926e-01
        16         5       -8.508604e-02
        17         5        1.888200e+00
        18         5       -2.424400e-01
        19         5       -1.641006e+00
        20         5        1.647298e+00
        21         5        5.137707e-01
        22         5        1.233653e+00
        23         5        2.437932e+00
        24         5       -9.654246e-01
        25         5        7.595430e-01
        26         5       -1.343809e-01
        27         5        3.890464e-01
        28         5       -6.049750e-01
        29         5       -1.470530e+00
        30         5       -8.145581e-01
        31         5        1.130820e+00
        32         5        1.010927e+00
        33         5        2.026243e+00
        34         5       -1.625333e+00
        35         5       -2.086641e+00
        36         5       -6.949419e-01
        37         5        8.531268e-02
        38         5        5.167030e-01
        39         5        3.973504e-01
        40         5       -8.256340e-01
        41         5        2.381781e+00
        42         5       -1.167424e+00
        43         5       -2.887089e-01
        44         5       -4.141816e-01
        45         5       -8.651058e-01
        46         5       -5.349686e-01
        47         5        7.112601e-02
        48         5       -1.002261e+00
        49         5        6.741170e-01
        50         5        1.707143e+00
        51         5       -6.444999e-01
        52         5       -1.212750e+00
        53         5       -6.975826e-01
        54         5        6.717444e-01
        55         5        1.286574e-01
        56         5       -7.502958e-01
        57         5        9.637797e-01
        58         5       -8.555143e-01
        59         5       -7.868715e-01
        60         5        1.985589e-01
        61         5       -5.126058e-01
        62         5       -1.018359e+00
        63         5       -4.281384e-03
        64         5        1.626562e+00
        65         5        1.696136e-02
        66         5       -7.186770e-01
        67         5       -1.011169e+00
        68         5        6.432733e-01
        69         5       -4.426353e-01
        70         5       -1.239792e+00
        71         5       -5.932772e-01
        72         5        8.973876e-01
        73         5        2.884312e-01
        74         5       -1.767259e+00
        75         5        4.876325e-01
        76         5        4.378387e-01
        77         5       -1.069446e+00
        78         5        1.955826e+00
        79         5        1.061387e+00
        80         5        2.406181e-01
        81         5        2.032992e+00
        82         5       -7.413644e-02
        83         5        5.924127e-01
        84         5       -4.660768e-01
        85         5       -5.649906e-01
        86         5        1.944824e+00
        87         5       -4.081590e-01
        88         5       -8.920975e-01
        89         5       -7.277843e-01
        90         5       -1.527702e+00
        91         5       -1.066398e+00
        92         5       -1.336479e+00
        93         5        1.168793e+00
        94         5       -7.361789e-01
        95         5       -1.534788e+00
        96         5       -9.732061e-01
        97         5       -6.817756e-01
        98         5        1.513732e+00
        99         5       -7.740153e-01
       100         5       -3.569561e-01
;

param theta:=
    1       -4.754130e-01
    2       -2.953205e-01
    3        1.294687e+00
    4        6.199579e-01
    5       -3.120907e-01
;
param X_true:=
    1        2.817146e+00
    2        4.670836e-01
    3       -5.789110e-01
    4        2.060192e+00
    5       -7.286918e-01
    6        3.289886e+00
    7       -9.907326e-01
    8        1.242880e+00
    9       -1.680156e+00
   10       -3.981908e+00
   11       -2.027208e+00
   12        3.703088e-01
   13       -2.009299e+00
   14       -4.460586e-01
   15       -7.875619e-02
   16        2.006020e+00
   17       -1.800676e+00
   18        1.912227e+00
   19        1.630345e-01
   20       -6.007787e-02
   21       -4.264834e-01
   22        8.553312e-01
   23       -5.421075e-01
   24        5.828645e-02
   25       -2.872396e+00
   26        1.054854e+00
   27       -6.971393e-01
   28        2.312835e+00
   29       -5.248596e-01
   30        4.502173e-03
   31       -2.365966e+00
   32       -1.646277e-01
   33       -2.064811e-01
   34        1.152509e+00
   35        3.954104e-01
   36        3.282353e+00
   37        1.391426e+00
   38       -3.208578e+00
   39       -7.611937e-02
   40        3.834963e-01
   41        4.383494e-01
   42       -1.018587e+00
   43        1.697605e+00
   44       -2.125809e-01
   45       -1.930145e-01
   46        1.627596e-02
   47       -1.059799e-01
   48        3.722496e-01
   49       -1.719317e-01
   50       -2.401965e+00
   51       -5.099582e-01
   52        1.269395e+00
   53        5.493597e-01
   54        1.873953e+00
   55        2.762988e+00
   56        4.028861e+00
   57        7.521288e-01
   58       -1.664251e+00
   59       -2.074823e+00
   60        5.546953e-01
   61       -4.319290e-01
   62       -1.854246e+00
   63        1.853803e-02
   64        3.238744e+00
   65       -2.404084e+00
   66        2.139851e+00
   67       -2.828376e-01
   68        6.068058e-01
   69        5.717577e-01
   70        2.831732e+00
   71        1.045026e-02
   72       -7.546570e-01
   73        4.303022e-01
   74       -2.315408e-01
   75        2.080109e+00
   76        3.457661e+00
   77        1.025332e+00
   78       -1.635326e+00
   79       -2.614126e+00
   80        2.720434e-01
   81        2.088281e-02
   82       -1.635102e+00
   83       -2.324200e+00
   84        6.175365e-01
   85        1.534451e+00
   86       -4.076192e+00
   87       -2.421390e+00
   88       -4.517293e+00
   89        1.633574e+00
   90       -1.373871e+00
   91        7.094942e-01
   92        2.249157e+00
   93       -1.337492e+00
   94        8.305441e-01
   95        2.069651e+00
   96       -1.075212e+00
   97        2.547502e-01
   98        7.641948e-01
   99       -7.440727e-01
  100       -2.178046e+00
;
param X:=
    1        2.082181e+00
    2        4.670836e-01
    3        1.679689e+00
    4       -5.145759e-01
    5       -4.762719e-01
    6        3.289886e+00
    7        1.273021e-01
    8        1.242880e+00
    9        9.606770e-01
   10       -8.345857e-01
   11        8.661830e-01
   12        2.739922e-01
   13       -1.272783e+00
   14        2.898743e-01
   15       -1.094231e+00
   16       -1.538197e-01
   17        6.005247e-01
   18        1.032919e+00
   19       -3.424824e-01
   20       -2.861748e+00
   21       -4.264834e-01
   22        8.553312e-01
   23       -5.296530e-01
   24        1.005155e+00
   25        1.651508e+00
   26       -1.357721e+00
   27        3.356627e-02
   28        8.066674e-01
   29       -7.386084e-01
   30        8.367613e-01
   31       -2.365966e+00
   32       -1.056798e+00
   33        7.839150e-01
   34       -6.721293e-01
   35       -1.130023e+00
   36       -1.555732e+00
   37        1.391426e+00
   38       -1.382234e+00
   39       -7.611937e-02
   40       -8.963927e-01
   41       -6.172373e-01
   42       -7.465511e-01
   43        1.167185e+00
   44       -2.125809e-01
   45       -6.914794e-02
   46        7.088802e-01
   47       -3.114728e-02
   48       -1.192234e+00
   49       -4.192631e-01
   50        2.534661e-01
   51        6.177580e-01
   52        1.769125e+00
   53       -1.790326e-01
   54       -2.459464e-01
   55        8.307764e-01
   56        4.028861e+00
   57       -7.344568e-01
   58       -1.664251e+00
   59        1.992504e-01
   60        5.546953e-01
   61        1.742530e-01
   62        5.113416e-01
   63       -5.871368e-01
   64        1.738408e-01
   65       -6.415259e-01
   66        9.456993e-01
   67       -2.828376e-01
   68       -6.402750e-02
   69        5.717577e-01
   70        2.023371e+00
   71       -1.518073e-02
   72        7.744589e-01
   73        5.032288e-02
   74        6.837066e-01
   75       -3.191754e+00
   76        3.457661e+00
   77        8.147644e-01
   78       -1.759580e-01
   79       -2.614126e+00
   80        7.747334e-01
   81       -2.182536e+00
   82        1.389146e+00
   83        3.000760e-01
   84        6.175365e-01
   85        5.172750e-01
   86       -4.076192e+00
   87        1.560443e+00
   88       -4.190721e-01
   89       -6.726356e-01
   90       -9.747036e-01
   91       -1.031193e+00
   92        2.249157e+00
   93        7.195180e-01
   94        8.305441e-01
   95       -1.944976e-01
   96       -8.234548e-01
   97       -5.321409e-01
   98        4.934745e-01
   99        1.690506e-01
  100       -4.932593e-01
;
param outliervec:=
    1    1
    2    0
    3    1
    4    1
    5    1
    6    0
    7    1
    8    0
    9    1
   10    1
   11    1
   12    1
   13    1
   14    1
   15    1
   16    1
   17    1
   18    1
   19    1
   20    1
   21    0
   22    0
   23    1
   24    1
   25    1
   26    1
   27    1
   28    1
   29    1
   30    1
   31    0
   32    1
   33    1
   34    1
   35    1
   36    1
   37    0
   38    1
   39    0
   40    1
   41    1
   42    1
   43    1
   44    0
   45    1
   46    1
   47    1
   48    1
   49    1
   50    1
   51    1
   52    1
   53    1
   54    1
   55    1
   56    0
   57    1
   58    0
   59    1
   60    0
   61    1
   62    1
   63    1
   64    1
   65    1
   66    1
   67    0
   68    1
   69    0
   70    1
   71    1
   72    1
   73    1
   74    1
   75    1
   76    0
   77    1
   78    1
   79    0
   80    1
   81    1
   82    1
   83    1
   84    0
   85    1
   86    0
   87    1
   88    1
   89    1
   90    1
   91    1
   92    0
   93    1
   94    0
   95    1
   96    1
   97    1
   98    1
   99    1
  100    1
;